311,286
655,419
654,353
672,378
761,446
721,486
148,490
326,350
470,115
560,318
654,353
617,207
629,334
548,338
560,318
639,140
681,-74
803,166
893,618
727,548
523,624
207,481
512,283
463,248
617,207
1006,457
822,600
552,805
935,660
1108,545
822,600
532,700
452,721
655,419
910,91
803,166
639,140
589,121
470,115
436,-75
141,406
326,350
